100
100
3000 3000 3000 3000 3000 3000 3000 3000 3000 3000 3000 3000 3000 3000 3000 3000 3000 3000 3000 3000 3000 3000 3000 3000 3000 3000 3000 3000 3000 3000 3000 3000 3000 3000 3000 3000 3000 3000 3000 3000 3000 3000 3000 3000 3000 3000 3000 3000 3000 3000 3000 3000 3000 3000 3000 3000 3000 3000 3000 3000 3000 3000 3000 3000 3000 3000 3000 3000 3000 3000 3000 3000 3000 3000 3000 3000 3000 3000 3000 3000 3000 3000 3000 3000 3000 3000 3000 3000 3000 3000 3000 3000 3000 3000 3000 3000 3000 3000 3000 3000
0 2 2
0 15 4
0 19 4
0 25 4
0 37 4
0 41 0
0 45 0
0 49 2
0 51 0
0 71 3
1 30 4
1 63 1
1 67 3
1 72 0
1 75 1
1 84 1
1 91 4
1 97 2
1 98 0
1 99 0
2 1 2
2 9 4
2 19 0
2 36 0
2 54 3
2 55 2
2 65 2
2 66 4
2 67 3
2 70 0
3 2 3
3 4 3
3 5 4
3 17 1
3 22 0
3 28 2
3 29 4
3 30 0
3 34 1
3 36 1
4 5 1
4 9 0
4 18 3
4 27 1
4 47 0
4 49 0
4 56 4
4 68 0
4 76 1
4 79 3
5 12 3
5 16 1
5 27 3
5 50 4
5 63 4
5 69 2
5 86 1
5 94 3
5 95 3
5 97 1
6 0 2
6 2 3
6 14 2
6 38 0
6 39 2
6 42 0
6 44 1
6 60 2
6 67 1
6 77 0
7 5 3
7 36 4
7 45 4
7 46 2
7 62 1
7 71 3
7 72 4
7 73 1
7 78 1
7 90 3
8 15 4
8 16 2
8 20 0
8 23 4
8 29 1
8 32 4
8 39 2
8 43 1
8 65 1
8 77 3
9 33 1
9 41 3
9 42 4
9 54 3
9 57 4
9 67 0
9 77 0
9 85 0
9 86 1
9 87 0
10 6 4
10 22 1
10 23 1
10 30 4
10 36 1
10 37 2
10 41 4
10 50 4
10 60 1
10 71 4
11 5 0
11 21 2
11 28 1
11 31 1
11 38 4
11 86 2
11 88 4
11 94 4
11 96 3
11 99 2
12 2 4
12 8 0
12 26 4
12 31 3
12 41 1
12 48 4
12 52 2
12 55 1
12 56 0
12 58 4
13 19 3
13 30 1
13 43 3
13 44 2
13 61 0
13 66 4
13 72 4
13 84 4
13 86 1
13 88 1
14 0 0
14 8 4
14 14 3
14 18 3
14 31 0
14 35 1
14 37 0
14 74 4
14 82 2
14 87 4
15 3 0
15 17 1
15 44 2
15 50 0
15 54 1
15 68 2
15 74 3
15 76 1
15 88 0
15 96 2
16 15 3
16 22 1
16 30 3
16 50 4
16 56 3
16 71 2
16 74 1
16 80 4
16 83 1
16 84 1
17 35 1
17 42 2
17 60 2
17 61 1
17 65 3
17 66 1
17 77 3
17 83 2
17 85 3
17 89 2
18 2 2
18 4 0
18 10 4
18 23 4
18 25 0
18 26 0
18 29 0
18 34 2
18 41 1
18 50 1
19 3 0
19 6 2
19 11 3
19 18 3
19 24 2
19 28 0
19 32 0
19 42 0
19 48 3
19 55 4
20 2 2
20 8 2
20 43 3
20 75 0
20 80 0
20 82 4
20 87 0
20 92 3
20 93 1
20 94 1
21 1 3
21 7 3
21 32 1
21 45 3
21 47 1
21 52 2
21 57 3
21 64 4
21 70 4
21 75 2
22 11 3
22 34 2
22 51 4
22 59 2
22 60 1
22 74 4
22 86 4
22 93 0
22 95 3
22 97 2
23 0 2
23 1 4
23 8 1
23 16 1
23 37 1
23 49 3
23 55 3
23 57 0
23 65 4
23 70 1
24 4 2
24 8 4
24 14 1
24 37 3
24 39 0
24 58 3
24 62 1
24 69 0
24 82 3
24 89 3
25 0 4
25 24 3
25 30 4
25 38 0
25 46 1
25 50 3
25 58 4
25 72 4
25 78 4
25 89 2
26 5 0
26 7 0
26 8 2
26 10 4
26 14 0
26 15 0
26 17 4
26 43 3
26 49 0
26 68 2
27 20 1
27 24 2
27 47 0
27 71 2
27 77 1
27 81 4
27 88 0
27 92 2
27 98 0
27 99 4
28 0 2
28 18 3
28 22 3
28 40 0
28 51 0
28 53 2
28 62 0
28 63 4
28 69 4
28 80 4
29 10 2
29 21 0
29 46 1
29 60 0
29 73 4
29 76 3
29 78 3
29 89 0
29 90 3
29 92 0
30 6 0
30 7 3
30 9 2
30 17 3
30 18 4
30 21 4
30 39 1
30 46 2
30 60 0
30 82 1
31 16 0
31 25 3
31 27 4
31 30 0
31 33 0
31 36 4
31 40 4
31 69 1
31 90 2
31 91 1
32 16 2
32 23 1
32 24 2
32 28 0
32 29 1
32 48 0
32 51 2
32 65 0
32 79 4
32 84 2
33 0 1
33 9 0
33 13 2
33 52 0
33 78 3
33 85 2
33 87 0
33 88 0
33 96 3
33 98 2
34 2 0
34 45 0
34 56 2
34 59 0
34 67 2
34 75 2
34 85 2
34 87 2
34 93 2
34 94 3
35 3 3
35 14 3
35 16 3
35 26 1
35 27 1
35 39 0
35 42 1
35 51 1
35 56 2
35 61 3
36 1 4
36 9 2
36 22 0
36 25 4
36 28 4
36 31 0
36 35 2
36 39 0
36 49 2
36 53 2
37 4 3
37 14 0
37 29 3
37 33 3
37 53 2
37 55 4
37 63 4
37 69 0
37 71 3
37 84 3
38 46 4
38 51 0
38 57 3
38 74 3
38 79 0
38 84 3
38 96 1
38 97 0
38 98 2
38 99 1
39 3 3
39 13 2
39 17 1
39 26 2
39 27 2
39 29 4
39 35 3
39 49 1
39 56 3
39 62 2
40 11 3
40 27 3
40 33 4
40 34 3
40 63 0
40 70 4
40 73 1
40 83 1
40 89 0
40 91 1
41 12 0
41 59 0
41 65 4
41 68 0
41 89 1
41 91 1
41 93 3
41 95 2
41 97 0
41 98 3
42 4 3
42 7 3
42 10 4
42 12 4
42 31 3
42 47 3
42 63 0
42 80 2
42 90 1
42 91 4
43 3 3
43 12 2
43 14 0
43 20 0
43 30 1
43 32 1
43 47 0
43 48 4
43 83 1
43 85 3
44 1 3
44 15 2
44 17 4
44 44 4
44 61 2
44 62 0
44 81 4
44 82 1
44 83 4
44 85 0
45 9 2
45 15 3
45 23 2
45 29 2
45 35 3
45 37 1
45 57 3
45 61 4
45 62 4
45 75 1
46 23 0
46 34 0
46 39 0
46 47 2
46 74 0
46 77 4
46 79 0
46 92 0
46 94 3
46 95 4
47 1 1
47 21 0
47 24 3
47 25 1
47 40 4
47 55 3
47 69 0
47 76 0
47 79 3
47 89 2
48 6 3
48 10 2
48 12 0
48 16 0
48 18 2
48 27 1
48 30 3
48 36 4
48 42 4
48 50 1
49 19 0
49 23 4
49 26 0
49 28 3
49 34 2
49 37 1
49 43 3
49 51 0
49 75 0
49 76 4
50 1 1
50 26 4
50 33 4
50 42 3
50 60 3
50 72 4
50 76 2
50 80 3
50 82 2
50 94 3
51 19 0
51 39 3
51 54 2
51 57 0
51 58 1
51 63 0
51 81 1
51 86 3
51 88 0
51 89 2
52 20 3
52 43 0
52 62 2
52 87 3
52 88 0
52 90 4
52 93 3
52 95 1
52 96 0
52 97 4
53 5 3
53 19 0
53 32 4
53 40 1
53 50 4
53 58 0
53 63 2
53 87 0
53 88 0
53 92 0
54 11 1
54 26 1
54 37 1
54 41 1
54 54 2
54 59 0
54 89 4
54 93 4
54 95 3
54 96 3
55 17 4
55 18 4
55 31 2
55 54 4
55 58 0
55 61 0
55 65 0
55 75 0
55 81 2
55 84 2
56 6 4
56 9 3
56 23 4
56 32 0
56 63 1
56 65 4
56 72 4
56 79 0
56 82 0
56 90 0
57 3 4
57 8 3
57 19 1
57 40 0
57 46 2
57 59 4
57 70 2
57 83 2
57 91 2
57 92 3
58 11 1
58 19 3
58 23 1
58 27 1
58 48 1
58 88 0
58 90 3
58 93 3
58 95 1
58 96 1
59 12 2
59 13 4
59 14 0
59 31 3
59 34 3
59 36 2
59 38 2
59 52 0
59 64 3
59 66 3
60 6 3
60 7 0
60 18 1
60 28 3
60 34 0
60 76 0
60 83 3
60 95 4
60 96 2
60 99 2
61 2 0
61 4 3
61 7 1
61 11 0
61 15 3
61 27 4
61 33 1
61 38 3
61 56 1
61 61 2
62 13 3
62 52 1
62 66 0
62 70 1
62 72 0
62 73 4
62 76 2
62 78 4
62 90 3
62 92 4
63 4 2
63 34 2
63 41 2
63 44 1
63 46 2
63 50 2
63 68 3
63 73 0
63 82 4
63 83 1
64 24 1
64 35 3
64 36 3
64 41 3
64 48 3
64 56 4
64 61 2
64 77 3
64 87 4
64 91 1
65 13 2
65 17 3
65 25 1
65 36 3
65 40 3
65 46 4
65 63 0
65 66 0
65 67 0
65 68 1
66 0 0
66 2 3
66 3 4
66 10 4
66 41 0
66 47 4
66 62 0
66 64 1
66 75 0
66 78 3
67 6 2
67 9 4
67 10 1
67 24 0
67 37 3
67 41 2
67 48 4
67 73 3
67 74 0
67 80 4
68 8 3
68 20 1
68 32 1
68 43 4
68 51 3
68 64 4
68 77 3
68 80 4
68 84 1
68 92 2
69 13 3
69 20 0
69 49 4
69 57 4
69 64 4
69 73 0
69 80 3
69 84 2
69 85 0
69 87 1
70 0 3
70 53 3
70 70 0
70 75 0
70 86 2
70 95 3
70 96 1
70 97 4
70 98 4
70 99 1
71 10 3
71 11 4
71 14 4
71 25 2
71 28 4
71 42 0
71 64 4
71 69 0
71 70 2
71 73 0
72 8 2
72 12 1
72 23 0
72 34 4
72 35 2
72 65 4
72 69 1
72 71 0
72 72 2
72 79 2
73 0 4
73 13 2
73 24 1
73 44 4
73 48 3
73 57 3
73 77 3
73 78 2
73 79 0
73 88 0
74 6 0
74 9 2
74 11 4
74 42 1
74 55 3
74 59 2
74 66 4
74 68 3
74 69 3
74 74 2
75 1 0
75 2 3
75 5 3
75 11 0
75 19 2
75 21 3
75 22 4
75 35 1
75 38 0
75 40 2
76 10 1
76 16 0
76 39 1
76 46 0
76 48 2
76 52 2
76 71 2
76 72 4
76 78 3
76 81 2
77 3 4
77 5 2
77 11 4
77 15 3
77 20 2
77 32 3
77 45 2
77 76 1
77 80 3
77 81 2
78 4 3
78 7 3
78 16 1
78 24 4
78 38 1
78 43 0
78 44 0
78 45 0
78 53 1
78 66 1
79 1 1
79 38 4
79 51 3
79 59 4
79 79 2
79 90 0
79 93 4
79 94 3
79 98 2
79 99 4
80 22 2
80 31 4
80 33 0
80 42 2
80 44 1
80 45 0
80 60 2
80 84 3
80 86 4
80 92 3
81 5 1
81 16 2
81 17 4
81 21 3
81 28 2
81 53 4
81 54 3
81 55 4
81 62 0
81 75 0
82 15 3
82 20 4
82 25 4
82 52 4
82 68 2
82 79 0
82 96 4
82 97 1
82 98 2
82 99 3
83 8 0
83 33 2
83 45 0
83 47 4
83 54 4
83 61 2
83 64 1
83 80 4
83 91 4
83 94 3
84 49 2
84 54 4
84 58 0
84 90 1
84 91 4
84 92 4
84 93 2
84 97 2
84 98 3
84 99 2
85 13 3
85 20 4
85 29 1
85 33 0
85 49 4
85 58 2
85 64 3
85 93 3
85 94 3
85 95 0
86 3 3
86 21 0
86 32 3
86 38 2
86 44 1
86 53 0
86 56 0
86 61 0
86 73 3
86 85 2
87 6 4
87 9 2
87 21 4
87 22 3
87 26 1
87 29 2
87 33 3
87 40 3
87 56 0
87 59 4
88 7 2
88 12 4
88 13 0
88 15 4
88 26 2
88 39 2
88 40 3
88 43 0
88 57 0
88 66 4
89 0 4
89 4 3
89 10 1
89 17 0
89 20 4
89 27 1
89 45 0
89 47 0
89 52 0
89 67 0
90 7 3
90 30 4
90 35 2
90 36 3
90 44 3
90 57 0
90 71 1
90 82 1
90 83 3
90 86 0
91 1 0
91 4 0
91 18 3
91 22 2
91 40 4
91 55 4
91 64 1
91 68 1
91 72 3
91 81 4
92 13 4
92 24 0
92 47 3
92 52 4
92 53 3
92 66 0
92 68 4
92 74 0
92 78 3
92 81 1
93 18 4
93 43 4
93 45 0
93 49 4
93 51 0
93 54 2
93 60 4
93 67 4
93 74 4
93 76 1
94 12 4
94 19 0
94 48 0
94 58 0
94 64 4
94 69 0
94 70 3
94 82 2
94 85 1
94 86 2
95 5 4
95 28 2
95 31 3
95 38 3
95 53 4
95 59 1
95 60 3
95 67 1
95 73 4
95 89 4
96 21 3
96 62 3
96 65 0
96 77 2
96 81 3
96 91 0
96 94 0
96 97 2
96 98 0
96 99 3
97 12 0
97 22 4
97 25 3
97 26 1
97 55 4
97 59 0
97 67 1
97 71 1
97 78 3
97 81 2
98 3 1
98 6 2
98 7 0
98 14 0
98 29 0
98 31 1
98 32 2
98 35 2
98 46 4
98 53 1
99 21 1
99 25 4
99 37 0
99 50 1
99 52 0
99 58 1
99 70 0
99 83 3
99 85 0
99 87 1
